SCIP Status        : solving was interrupted [time limit reached]
Total Time         :    3600.01
  solving          :    3600.00
  presolving       :       0.16 (included in solving)
  reading          :       0.01
  copying          :       0.12 (20 #copies) (minimal 0.00, maximal 0.01, average 0.01)
Original Problem   :
  Problem name     : benchmark/block2_55_11_10_14.design
  Variables        : 1466 (55 binary, 0 integer, 0 implicit integer, 1411 continuous)
  Constraints      : 2028 initial, 2028 maximal
  Objective        : minimize, 1 non-zeros (abs.min = 1, abs.max = 1)
Presolved Problem  :
  Problem name     : t_benchmark/block2_55_11_10_14.design
  Variables        : 2128 (55 binary, 0 integer, 0 implicit integer, 2073 continuous)
  Constraints      : 2028 initial, 2034 maximal
  Objective        : minimize, 1 non-zeros (abs.min = 1, abs.max = 1)
  Nonzeros         : 6922 constraint, 0 clique table
Presolvers         :   ExecTime  SetupTime  Calls  FixedVars   AggrVars   ChgTypes  ChgBounds   AddHoles    DelCons    AddCons   ChgSides   ChgCoefs
  boundshift       :       0.00       0.00      0          0          0          0          0          0          0          0          0          0
  convertinttobin  :       0.00       0.00      0          0          0          0          0          0          0          0          0          0
  domcol           :       0.00       0.00      1          0          0          0          0          0          0          0          0          0
  dualagg          :       0.00       0.00      0          0          0          0          0          0          0          0          0          0
  dualcomp         :       0.00       0.00      1          0          0          0          0          0          0          0          0          0
  dualinfer        :       0.00       0.00      0          0          0          0          0          0          0          0          0          0
  dualsparsify     :       0.00       0.00      1          0          0          0          0          0          0          0          0          0
  gateextraction   :       0.00       0.00      0          0          0          0          0          0          0          0          0          0
  implics          :       0.00       0.00      1          0          0          0          0          0          0          0          0          0
  inttobinary      :       0.00       0.00      0          0          0          0          0          0          0          0          0          0
  qpkktref         :       0.00       0.00      0          0          0          0          0          0          0          0          0          0
  redvub           :       0.00       0.00      0          0          0          0          0          0          0          0          0          0
  sparsify         :       0.00       0.00      1          0          0          0          0          0          0          0          0          0
  stuffing         :       0.00       0.00      0          0          0          0          0          0          0          0          0          0
  trivial          :       0.00       0.00      2         45          0          0          0          0          0          0          0          0
  tworowbnd        :       0.00       0.00      0          0          0          0          0          0          0          0          0          0
  dualfix          :       0.00       0.00      2         45          0          0          0          0          0          0          0          0
  genvbounds       :       0.00       0.00      0          0          0          0          0          0          0          0          0          0
  probing          :       0.03       0.00      1          0          0          0          0          0          0          0          0          0
  pseudoobj        :       0.00       0.00      0          0          0          0          0          0          0          0          0          0
  symmetry         :       0.00       0.00      1          0          0          0          0          0          0          0          0          0
  vbounds          :       0.00       0.00      0          0          0          0          0          0          0          0          0          0
  linear           :       0.01       0.00      3          0          0          0          0          0          0          0          0          0
  nonlinear        :       0.11       0.02      4          0          0          0        100          0          0          0          0          0
  benders          :       0.00       0.00      0          0          0          0          0          0          0          0          0          0
  components       :       0.00       0.00      1          0          0          0          0          0          0          0          0          0
  root node        :          -          -      -          0          -          -       2702          -          -          -          -          -
Constraints        :     Number  MaxNumber  #Separate #Propagate    #EnfoLP    #EnfoRelax  #EnfoPS    #Check   #ResProp    Cutoffs    DomReds       Cuts    Applied      Conss   Children
  benderslp        :          0          0          0          0      47767          0          0      45788          0          0          0          0          0          0          0
  integral         :          0          0          0          0      47767          0          0      45788          0          0       6484          0          0          0      94850
  linear           :       1377+      1383         58     875062          1          0          0      45782          2         75      28969         15          0          0          0
  nonlinear        :        651        651     284124     874987        101          0          0      27653          0         85    2863422    1102677    1088338          0          0
  benders          :          0          0          0          0          1          0          0          4          0          0          0          0          0          0          0
  countsols        :          0          0          0          0          1          0          0          4          0          0          0          0          0          0          0
  components       :          0          0          0          0          0          0          0          0          0          0          0          0          0          0          0
Constraint Timings :  TotalTime  SetupTime   Separate  Propagate     EnfoLP     EnfoPS     EnfoRelax   Check    ResProp    SB-Prop
  benderslp        :       0.14       0.00       0.00       0.00       0.11       0.00       0.00       0.03       0.00       0.00
  integral         :      11.51       0.00       0.00       0.00      11.49       0.00       0.00       0.02       0.00       0.00
  linear           :      21.37       0.00       0.01      18.47       0.00       0.00       0.00       2.86       0.00       0.03
  nonlinear        :     638.57       0.02     468.37     154.75       0.12       0.00       0.00      15.06       0.00       0.25
  benders          :       0.00       0.00       0.00       0.00       0.00       0.00       0.00       0.00       0.00       0.00
  countsols        :       0.00       0.00       0.00       0.00       0.00       0.00       0.00       0.00       0.00       0.00
  components       :       0.11       0.00       0.00       0.11       0.00       0.00       0.00       0.00       0.00       0.00
Propagators        : #Propagate   #ResProp    Cutoffs    DomReds
  dualfix          :          2          0          0          0
  genvbounds       :          0          0          0          0
  nlobbt           :          0          0          0          0
  obbt             :          0          0          0          0
  probing          :          0          0          0          0
  pseudoobj        :     139559          0          0         14
  redcost          :     380166          0          0        672
  rootredcost      :          4          0          0       2037
  symmetry         :          0          0          0          0
  vbounds          :     220635          0          0          0
Propagator Timings :  TotalTime  SetupTime   Presolve  Propagate    ResProp    SB-Prop
  dualfix          :       0.00       0.00       0.00       0.00       0.00       0.00
  genvbounds       :       0.60       0.00       0.00       0.60       0.00       0.00
  nlobbt           :       0.00       0.00       0.00       0.00       0.00       0.00
  obbt             :       0.00       0.00       0.00       0.00       0.00       0.00
  probing          :       0.03       0.00       0.03       0.00       0.00       0.00
  pseudoobj        :       0.87       0.00       0.00       0.86       0.00       0.01
  redcost          :       7.01       0.00       0.00       7.00       0.00       0.01
  rootredcost      :       0.42       0.00       0.00       0.42       0.00       0.00
  symmetry         :       0.26       0.00       0.00       0.26       0.00       0.00
  vbounds          :       0.50       0.00       0.00       0.50       0.00       0.00
Conflict Analysis  :       Time      Calls    Success    DomReds  Conflicts   Literals    Reconvs ReconvLits   Dualrays   Nonzeros   LP Iters   (pool size: [--,--])
  propagation      :       0.00         33          1          -          1       71.0          0        0.0          -          -          -
  infeasible LP    :       0.00          0          0          -          0        0.0          0        0.0        342      140.1          0
  bound exceed. LP :       9.80       5533        342          -          0        0.0          0        0.0          0        0.0      58015
  strong branching :       0.00          0          0          -          0        0.0          0        0.0          -          -          0
  pseudo solution  :       0.00          0          0          -          0        0.0          0        0.0          -          -          -
  applied globally :       0.00          -          -          0          0        0.0          -          -        342          -          -
  applied locally  :          -          -          -          0          0        0.0          -          -          0          -          -
Separators         :   ExecTime  SetupTime      Calls  RootCalls    Cutoffs    DomReds  FoundCuts ViaPoolAdd  DirectAdd    Applied ViaPoolApp  DirectApp      Conss
  cut pool         :       0.03          -       4642         57          -          -         88        428          -          -          -          -          -    (maximal pool size:          8)
  aggregation      :       6.48       0.00       4637         58          0          0          0          0          0          0          0          0          0
  > cmir           :          -          -          -          -          -          -          -          0          0          0          0          0          -
  > flowcover      :          -          -          -          -          -          -          -          0          0          0          0          0          -
  > knapsackcover  :          -          -          -          -          -          -          -          0          0          0          0          0          -
  cgmip            :       0.00       0.00          0          0          0          0          0          0          0          0          0          0          0
  clique           :       0.00       0.00          1          1          0          0          0          0          0          0          0          0          0
  closecuts        :       0.00       0.00          0          0          0          0          0          0          0          0          0          0          0
  convexproj       :       0.00       0.00          0          0          0          0          0          0          0          0          0          0          0
  disjunctive      :       0.00       0.00          0          0          0          0          0          0          0          0          0          0          0
  eccuts           :       0.00       0.00          0          0          0          0          0          0          0          0          0          0          0
  gauge            :       0.00       0.00          0          0          0          0          0          0          0          0          0          0          0
  gomory           :       4.01       0.00       3567         10          0          0         88        428          0        266        266          0          0
  > gomorymi       :          -          -          -          -          -          -          -        428          0        266        266          0          -
  > strongcg       :          -          -          -          -          -          -          -          0          0          0          0          0          -
  impliedbounds    :       0.42       0.00       4637         58          0          0          0          0          0          0          0          0          0
  interminor       :       0.00       0.00          0          0          0          0          0          0          0          0          0          0          0
  intobj           :       0.00       0.00          0          0          0          0          0          0          0          0          0          0          0
  mcf              :       0.00       0.00          2          2          0          0          0          0          0          0          0          0          0
  minor            :       0.01       0.00          0          0          0          0          0          0          0          0          0          0          0
  mixing           :       0.15       0.00       4637         58          0          0          0          0          0          0          0          0          0
  oddcycle         :       0.00       0.00          0          0          0          0          0          0          0          0          0          0          0
  rapidlearning    :       0.03       0.00          0          0          0          0          0          0          0          0          0          0          0
  rlt              :       0.00       0.00         10         10          0          0          0          0          0          0          0          0          0
  zerohalf         :       1.09       0.00       3577         20          0          0          0          0          0          0          0          0          0
Cutselectors       :   ExecTime  SetupTime      Calls  RootCalls   Selected     Forced   Filtered  RootSelec   RootForc   RootFilt 
  hybrid           :       0.90       0.00     284078         58    1085468          0      14512       2055          0         54
Pricers            :   ExecTime  SetupTime      Calls       Vars
  problem variables:       0.00          -          0          0
Branching Rules    :   ExecTime  SetupTime   BranchLP  BranchExt   BranchPS    Cutoffs    DomReds       Cuts      Conss   Children
  allfullstrong    :       0.00       0.00          0          0          0          0          0          0          0          0
  cloud            :       0.00       0.00          0          0          0          0          0          0          0          0
  distribution     :       0.00       0.00          0          0          0          0          0          0          0          0
  fullstrong       :       0.00       0.00          0          0          0          0          0          0          0          0
  inference        :       0.00       0.00          0          0          0          0          0          0          0          0
  leastinf         :       0.00       0.00          0          0          0          0          0          0          0          0
  lookahead        :       0.00       0.00          0          0          0          0          0          0          0          0
  mostinf          :       0.00       0.00          0          0          0          0          0          0          0          0
  multaggr         :       0.00       0.00          0          0          0          0          0          0          0          0
  nodereopt        :       0.00       0.00          0          0          0          0          0          0          0          0
  pscost           :       0.00       0.00          0          0          0          0          0          0          0          0
  random           :       0.00       0.00          0          0          0          0          0          0          0          0
  relpscost        :      11.37       0.00      47666          0          0          0       6484          0          0      94850
  vanillafullstrong:       0.00       0.00          0          0          0          0          0          0          0          0
Primal Heuristics  :   ExecTime  SetupTime      Calls      Found       Best
  LP solutions     :       0.00          -          -          1          1
  relax solutions  :       0.00          -          -          0          0
  pseudo solutions :       0.00          -          -          0          0
  strong branching :       0.02          -          -          0          0
  actconsdiving    :       0.00       0.00          0          0          0
  adaptivediving   :       2.12       0.00         54          0          0
  alns             :       8.43       0.00          9          0          0
  bound            :       0.00       0.00          0          0          0
  clique           :       0.00       0.00          0          0          0
  coefdiving       :       0.00       0.00          0          0          0
  completesol      :       0.00       0.00          0          0          0
  conflictdiving   :     109.02       0.00       2762          0          0
  crossover        :       0.00       0.00          0          0          0
  dins             :       0.00       0.00          0          0          0
  distributiondivin:     412.04       0.00       1278          0          0
  dps              :       0.00       0.00          0          0          0
  dualval          :       0.00       0.00          0          0          0
  farkasdiving     :       0.00       0.00          0          0          0
  feaspump         :      29.02       0.00        303          0          0
  fixandinfer      :       0.00       0.00          0          0          0
  fracdiving       :      44.01       0.00       1352          0          0
  gins             :       0.05       0.00          0          0          0
  guideddiving     :      49.82       0.00       1502          0          0
  indicator        :       0.21       0.00          0          0          0
  indicatordiving  :       0.00       0.00          0          0          0
  intdiving        :       0.00       0.00          0          0          0
  intshifting      :       1.00       0.00         74          0          0
  linesearchdiving :      48.16       0.00       1793          0          0
  localbranching   :       0.00       0.00          0          0          0
  locks            :       0.02       0.00          1          0          0
  lpface           :       0.02       0.00          0          0          0
  mpec             :       3.88       0.00          1          0          0
  multistart       :       0.00       0.00          0          0          0
  mutation         :       0.00       0.00          0          0          0
  nlpdiving        :       4.17       0.00          2          0          0
  objpscostdiving  :      39.40       0.00        142          0          0
  octane           :       0.00       0.00          0          0          0
  ofins            :       0.01       0.00          0          0          0
  oneopt           :       0.00       0.00          4          0          0
  padm             :       0.00       0.00          0          0          0
  proximity        :       0.00       0.00          0          0          0
  pscostdiving     :      47.56       0.00       1121          0          0
  randrounding     :       7.39       0.00      24291          0          0
  rens             :       0.00       0.00          0          0          0
  reoptsols        :       0.00       0.00          0          0          0
  repair           :       0.00       0.00          0          0          0
  rins             :      18.96       0.00         11          0          0
  rootsoldiving    :       7.06       0.00         77          0          0
  rounding         :       0.70       0.00       7946          0          0
  shiftandpropagate:       0.01       0.00          1          0          0
  shifting         :       1.97       0.00       2364          0          0
  simplerounding   :       0.26       0.00          0          0          0
  subnlp           :      12.17       0.00         35          3          3
  trivial          :       0.01       0.00          2          0          0
  trivialnegation  :       0.00       0.00          0          0          0
  trustregion      :       0.00       0.00          0          0          0
  trysol           :       0.23       0.00          0          0          0
  twoopt           :       0.00       0.01          0          0          0
  undercover       :       0.26       0.00          1          0          0
  vbounds          :       0.00       0.00          0          0          0
  veclendiving     :      59.49       0.00       1660          0          0
  zeroobj          :       0.00       0.00          0          0          0
  zirounding       :       0.03       0.00       1000          0          0
  other solutions  :          -          -          -          0          -
Diving (single)    :      Calls      Nodes   LP Iters Backtracks  Conflicts   MinDepth   MaxDepth   AvgDepth  RoundSols  NLeafSols  MinSolDpt  MaxSolDpt  AvgSolDpt
  actconsdiving    :          0          -          -          -          -          -          -          -          -          -          -          -          -
  coefdiving       :          0          -          -          -          -          -          -          -          -          -          -          -          -
  conflictdiving   :       2762      36089     783788       2671        170         16         55       31.4          0          -          -          -          -
  distributiondivin:       1278      25145     418833        685         96         17         55       36.3          0          -          -          -          -
  farkasdiving     :          0          -          -          -          -          -          -          -          -          -          -          -          -
  fracdiving       :       1352      45500     418269         41          4         26         55       51.6          0          -          -          -          -
  guideddiving     :       1502      41377     419351        249         12         25         55       46.2          0          -          -          -          -
  indicatordiving  :          0          -          -          -          -          -          -          -          -          -          -          -          -
  linesearchdiving :       1793      37642     418638        168         11         24         52       39.2          0          -          -          -          -
  pscostdiving     :       1121      40277     420123          6          2         32         55       53.3          0          -          -          -          -
  veclendiving     :       1660      10500     418172       1182         44         15         45       23.3          0          -          -          -          -
Diving (adaptive)  :      Calls      Nodes   LP Iters Backtracks  Conflicts   MinDepth   MaxDepth   AvgDepth  RoundSols  NLeafSols  MinSolDpt  MaxSolDpt  AvgSolDpt
  actconsdiving    :         15         87       4035          6          1         19         29       22.8          0          -          -          -          -
  coefdiving       :         12         74       3006          6          1         20         27       23.8          0          -          -          -          -
  conflictdiving   :          0          -          -          -          -          -          -          -          -          -          -          -          -
  distributiondivin:          0          -          -          -          -          -          -          -          -          -          -          -          -
  farkasdiving     :          0          -          -          -          -          -          -          -          -          -          -          -          -
  fracdiving       :          3        116       1026          0          0         54         55       54.7          0          -          -          -          -
  guideddiving     :          5        150       1379          1          0         36         53       46.8          0          -          -          -          -
  indicatordiving  :          0          -          -          -          -          -          -          -          -          -          -          -          -
  linesearchdiving :          1         29        298          0          0         39         39       39.0          0          -          -          -          -
  pscostdiving     :         17        641       6768          0          0         48         55       53.7          0          -          -          -          -
  veclendiving     :          1         10        219          0          0         20         20       20.0          0          -          -          -          -
Neighborhoods      :      Calls  SetupTime  SolveTime SolveNodes       Sols       Best       Exp3  EpsGreedy        UCB TgtFixRate  Opt  Inf Node Stal  Sol  Usr Othr Actv
  rens             :          2       0.03       2.18         50          0          0    0.00000   -1.00000    0.47019      0.850    0    1    0    1    0    0    0    1
  rins             :          1       0.02       1.16         11          0          0    0.00000   -1.00000    0.54870      0.700    0    1    0    0    0    0    0    1
  mutation         :          1       0.02       0.98          1          0          0    0.00000   -1.00000    0.55979      0.700    0    1    0    0    0    0    0    1
  localbranching   :          1       0.01       1.16         11          0          0    0.00000   -1.00000    0.54870      0.700    0    1    0    0    0    0    0    1
  crossover        :          1       0.02       1.37         37          0          0    0.00000   -1.00000    0.52033      0.700    0    1    0    0    0    0    0    1
  proximity        :          1       0.02       0.72          1          0          0    0.00000   -1.00000    0.55961      0.700    0    1    0    0    0    0    0    1
  zeroobjective    :          1       0.00       0.00          0          0          0    0.00000   -1.00000    0.06070      0.900    0    0    0    0    0    0    1    1
  dins             :          1       0.01       0.62         11          0          0    0.00000   -1.00000    0.54870      0.700    0    1    0    0    0    0    0    1
  trustregion      :          0       0.00       0.00          0          0          0    0.00000   -1.00000    1.00000      0.900    0    0    0    0    0    0    0    0
Expressions        :   #IntEval  IntEvalTi   #RevProp  RevPropTi    DomReds    Cutoffs  #Estimate  EstimTime  Branching  #Simplify SimplifyTi Simplified
  pow              :   26374008       6.21    9079268       2.50   16879283          0       1103       0.00          0       1420       0.00          0
  prod             :   22523076       6.47     118504       0.51        277          0          0       0.00          0       1102       0.00        550
  sum              :   25323726       6.69   15165199       5.39    1303900          0        101       0.00          0       1402       0.00        101
  var              :   62894937      15.26          0       0.00          0          0          0       0.00          0       3821       0.00          0
  varidx           :          0       0.00          0       0.00          0          0          0       0.00          0          0       0.00          0
Nonlinear Conshdlr :   WeakSepa  TightenLP DespTghtLP DespBranch DespCutoff    ForceLP  CanonTime
  enforce          :       3131          0          0          0          0          0
  presolve         :                                                                         0.10
Nlhdlrs            :    Detects  DetectAll DetectTime   #IntEval  IntEvalTi   #RevProp  RevPropTi    DomReds    Cutoffs   #Enforce   EnfoTime       Cuts  Branching
  soc              :        550        550       0.00          0       0.00          0       0.00          0          0  101308234     195.67     817595          0
  convex           :          1          1       0.00          0       0.00          0       0.00          0          0     284080       1.69     284079          0
  concave          :          0          0       0.00          0       0.00          0       0.00          0          0          0       0.00          0          0
  quotient         :          0          0       0.00          0       0.00          0       0.00          0          0          0       0.00          0          0
  quadratic        :          0          0       0.00          0       0.00          0       0.00          0          0          0       0.00          0          0
  default          :       3228      16140       0.00   74218064      47.66   24367069      49.29   18183460          0       1204       0.00       1003          0
  bilinear         :          0          0       0.01          0       0.00          0       0.00          0          0          0       0.00          0          0
  perspective      :          0          0       0.00          0       0.00          0       0.00          0          0          0       0.00          0          0
LP                 :       Time      Calls Iterations  Iter/call   Iter/sec  Time-0-It Calls-0-It    ItLimit
  primal LP        :     948.91      47930          0       0.00       0.00     948.62      47930
  dual LP          :     990.40     332508    8306494      25.05    8387.01       0.30        861
  lex dual LP      :       0.00          0          0       0.00          -
  barrier LP       :       0.00          0          0       0.00          -       0.00          0
  resolve instable :       0.00          0          0       0.00          -
  diving/probing LP:     237.42      53413    3579257      67.01   15075.63
  strong branching :       4.09        641      37063      57.82    9061.86          -          -         85
    (at root node) :          -         23        501      21.78          -
  conflict analysis:       4.79       5954      58015       9.74   12111.69
NLP relaxation     :
  solve time       :       4.13 (12 calls)
  convexity        :  nonconvex (77 linear rows, 101 convex ineq., 550 nonconvex ineq., 0 nonlinear eq. or two-sided ineq.)
NLP Solvers        :  #Problems  ProblemTi    #Solves  SolveTime      #Iter  Time/Iter      #Okay #TimeLimit #IterLimit #LObjLimit #Interrupt  #NumError #EvalError  #OutOfMem #LicenseEr #OtherTerm   #GlobOpt    #LocOpt  #Feasible #LocInfeas #GlobInfea #Unbounded   #Unknown
  ipopt            :         37      20.82         49      17.84       1972       0.01         44          0          5          0          0          0          0          0          0          0          0         12          1         30          0          0          6
B&B Tree           :
  number of runs   :          1
  nodes            :      47454 (47425 internal, 29 leaves)
  feasible leaves  :          1
  infeas. leaves   :          0
  objective leaves :         27
  nodes (total)    :      47454 (47425 internal, 29 leaves)
  nodes left       :      47398
  max depth        :         27
  max depth (total):         27
  backtracks       :      15478 (32.6%)
  early backtracks :          0 (0.0%)
  nodes exc. ref.  :          0 (0.0%)
  delayed cutoffs  :          0
  repropagations   :          7 (0 domain reductions, 0 cutoffs)
  avg switch length:      10.26
  switching time   :     973.67
Estim. Tree Size   :      94906
Estimation Tree    : 94851 nodes (47453 visited, 47425 internal, 28 leaves, 47398 open), weight: 0.0001 completed 0.0591
Estimations        :      estim      value      trend resolution     smooth
  wbe              :     799934          -          -          -          -
  tree-profile     :         -1          -          -          -          -
  gap              :         97    0.84601    0.00734          1         94
  tree-weight      :      94906    0.00007    0.00000          1      94718
  leaf-frequency   :     237347    0.00058    0.00000          1     247198
  ssg              :       1282    0.90677   -0.00148          1       1222
  open-nodes       :      94906 47398.00000  563.69088          1      94326
Root Node          :
  First LP value   : -2.61455153231987e+00
  First LP Iters   :       2040 (34000.00 Iter/sec)
  First LP Time    :       0.06
  Final Dual Bound : -2.25872927203689e+00
  Final Root Iters :       8384
  Root LP Estimate : -1.88042600177647e+00
Solution           :
  Solutions found  :          4 (4 improvements)
  First Solution   : -1.52039143561811e+00   (in run 1, after 1 nodes, 0.84 seconds, depth 0, found by <feaspump>)
  Gap First Sol.   :      71.97 %
  Gap Last Sol.    :      18.56 %
  Primal Bound     : -1.83548674251585e+00   (in run 1, after 29279 nodes, 2206.20 seconds, depth 24, found by <relaxation>)
  Dual Bound       : -2.16956801412663e+00
  Gap              :      18.20 %
Integrals          :      Total       Avg%
  primal-dual      :   59687.03      16.58
  primal-ref       :          -          - (not evaluated)
  dual-ref         :          -          - (not evaluated)
